Route 1: 0 6 86 11 1 4 5 21 0
Route 2: 0 15 77 56 40 12 70 92 16 35 79 0
Route 3: 0 83 99 20 52 51 100 0
Route 4: 0 73 55 28 74 32 50 44 85 57 30 67 0
Route 5: 0 22 17 29 60 89 82 25 0
Route 6: 0 3 36 39 45 27 31 0
Route 7: 0 37 8 81 63 33 66 46 64 42 53 61 93 0
Route 8: 0 69 97 98 59 76 19 72 94 58 23 43 91 0
Route 9: 0 9 10 13 88 18 68 26 48 49 95 96 90 0
Route 10: 0 84 71 38 75 2 41 34 65 24 7 14 54 0
Route 11: 0 78 62 47 80 87 0
